PreSolver/instances/dataset_final/sat_cliquecoloring_116_1081.cnf
c description: There is a graph of 8 vertices with a 5-clique and a 6-coloring
c generator: CNFgen (0.9.0)
c copyright: (C) 2012-2020 Massimo Lauria <massimo.lauria@uniroma1.it>
c url: https://massimolauria.net/cnfgen
c
p cnf 116 1081
-29 -30 0
-29 -31 0
-29 -32 0
-29 -33 0
-29 -34 0
-29 -35 0
-29 -36 0
-30 -31 0
-30 -32 0
-30 -33 0
-30 -34 0
-30 -35 0
-30 -36 0
-31 -32 0
-31 -33 0
-31 -34 0
-31 -35 0
-31 -36 0
-32 -33 0
-32 -34 0
-32 -35 0
-32 -36 0
-33 -34 0
-33 -35 0
-33 -36 0
-34 -35 0
-34 -36 0
-35 -36 0
29 30 31 32 33 34 35 36 0
-37 -38 0
-37 -39 0
-37 -40 0
-37 -41 0
-37 -42 0
-37 -43 0
-37 -44 0
-38 -39 0
-38 -40 0
-38 -41 0
-38 -42 0
-38 -43 0
-38 -44 0
-39 -40 0
-39 -41 0
-39 -42 0
-39 -43 0
-39 -44 0
-40 -41 0
-40 -42 0
-40 -43 0
-40 -44 0
-41 -42 0
-41 -43 0
-41 -44 0
-42 -43 0
-42 -44 0
-43 -44 0
37 38 39 40 41 42 43 44 0
-45 -46 0
-45 -47 0
-45 -48 0
-45 -49 0
-45 -50 0
-45 -51 0
-45 -52 0
-46 -47 0
-46 -48 0
-46 -49 0
-46 -50 0
-46 -51 0
-46 -52 0
-47 -48 0
-47 -49 0
-47 -50 0
-47 -51 0
-47 -52 0
-48 -49 0
-48 -50 0
-48 -51 0
-48 -52 0
-49 -50 0
-49 -51 0
-49 -52 0
-50 -51 0
-50 -52 0
-51 -52 0
45 46 47 48 49 50 51 52 0
-53 -54 0
-53 -55 0
-53 -56 0
-53 -57 0
-53 -58 0
-53 -59 0
-53 -60 0
-54 -55 0
-54 -56 0
-54 -57 0
-54 -58 0
-54 -59 0
-54 -60 0
-55 -56 0
-55 -57 0
-55 -58 0
-55 -59 0
-55 -60 0
-56 -57 0
-56 -58 0
-56 -59 0
-56 -60 0
-57 -58 0
-57 -59 0
-57 -60 0
-58 -59 0
-58 -60 0
-59 -60 0
53 54 55 56 57 58 59 60 0
-61 -62 0
-61 -63 0
-61 -64 0
-61 -65 0
-61 -66 0
-61 -67 0
-61 -68 0
-62 -63 0
-62 -64 0
-62 -65 0
-62 -66 0
-62 -67 0
-62 -68 0
-63 -64 0
-63 -65 0
-63 -66 0
-63 -67 0
-63 -68 0
-64 -65 0
-64 -66 0
-64 -67 0
-64 -68 0
-65 -66 0
-65 -67 0
-65 -68 0
-66 -67 0
-66 -68 0
-67 -68 0
61 62 63 64 65 66 67 68 0
-29 -37 0
-29 -45 0
-29 -53 0
-29 -61 0
-37 -45 0
-37 -53 0
-37 -61 0
-45 -53 0
-45 -61 0
-53 -61 0
-30 -38 0
-30 -46 0
-30 -54 0
-30 -62 0
-38 -46 0
-38 -54 0
-38 -62 0
-46 -54 0
-46 -62 0
-54 -62 0
-31 -39 0
-31 -47 0
-31 -55 0
-31 -63 0
-39 -47 0
-39 -55 0
-39 -63 0
-47 -55 0
-47 -63 0
-55 -63 0
-32 -40 0
-32 -48 0
-32 -56 0
-32 -64 0
-40 -48 0
-40 -56 0
-40 -64 0
-48 -56 0
-48 -64 0
-56 -64 0
-33 -41 0
-33 -49 0
-33 -57 0
-33 -65 0
-41 -49 0
-41 -57 0
-41 -65 0
-49 -57 0
-49 -65 0
-57 -65 0
-34 -42 0
-34 -50 0
-34 -58 0
-34 -66 0
-42 -50 0
-42 -58 0
-42 -66 0
-50 -58 0
-50 -66 0
-58 -66 0
-35 -43 0
-35 -51 0
-35 -59 0
-35 -67 0
-43 -51 0
-43 -59 0
-43 -67 0
-51 -59 0
-51 -67 0
-59 -67 0
-36 -44 0
-36 -52 0
-36 -60 0
-36 -68 0
-44 -52 0
-44 -60 0
-44 -68 0
-52 -60 0
-52 -68 0
-60 -68 0
1 -29 -38 0
1 -29 -46 0
1 -29 -54 0
1 -29 -62 0
1 -37 -30 0
1 -37 -46 0
1 -37 -54 0
1 -37 -62 0
1 -45 -30 0
1 -45 -38 0
1 -45 -54 0
1 -45 -62 0
1 -53 -30 0
1 -53 -38 0
1 -53 -46 0
1 -53 -62 0
1 -61 -30 0
1 -61 -38 0
1 -61 -46 0
1 -61 -54 0
2 -29 -39 0
2 -29 -47 0
2 -29 -55 0
2 -29 -63 0
2 -37 -31 0
2 -37 -47 0
2 -37 -55 0
2 -37 -63 0
2 -45 -31 0
2 -45 -39 0
2 -45 -55 0
2 -45 -63 0
2 -53 -31 0
2 -53 -39 0
2 -53 -47 0
2 -53 -63 0
2 -61 -31 0
2 -61 -39 0
2 -61 -47 0
2 -61 -55 0
3 -29 -40 0
3 -29 -48 0
3 -29 -56 0
3 -29 -64 0
3 -37 -32 0
3 -37 -48 0
3 -37 -56 0
3 -37 -64 0
3 -45 -32 0
3 -45 -40 0
3 -45 -56 0
3 -45 -64 0
3 -53 -32 0
3 -53 -40 0
3 -53 -48 0
3 -53 -64 0
3 -61 -32 0
3 -61 -40 0
3 -61 -48 0
3 -61 -56 0
4 -29 -41 0
4 -29 -49 0
4 -29 -57 0
4 -29 -65 0
4 -37 -33 0
4 -37 -49 0
4 -37 -57 0
4 -37 -65 0
4 -45 -33 0
4 -45 -41 0
4 -45 -57 0
4 -45 -65 0
4 -53 -33 0
4 -53 -41 0
4 -53 -49 0
4 -53 -65 0
4 -61 -33 0
4 -61 -41 0
4 -61 -49 0
4 -61 -57 0
5 -29 -42 0
5 -29 -50 0
5 -29 -58 0
5 -29 -66 0
5 -37 -34 0
5 -37 -50 0
5 -37 -58 0
5 -37 -66 0
5 -45 -34 0
5 -45 -42 0
5 -45 -58 0
5 -45 -66 0
5 -53 -34 0
5 -53 -42 0
5 -53 -50 0
5 -53 -66 0
5 -61 -34 0
5 -61 -42 0
5 -61 -50 0
5 -61 -58 0
6 -29 -43 0
6 -29 -51 0
6 -29 -59 0
6 -29 -67 0
6 -37 -35 0
6 -37 -51 0
6 -37 -59 0
6 -37 -67 0
6 -45 -35 0
6 -45 -43 0
6 -45 -59 0
6 -45 -67 0
6 -53 -35 0
6 -53 -43 0
6 -53 -51 0
6 -53 -67 0
6 -61 -35 0
6 -61 -43 0
6 -61 -51 0
6 -61 -59 0
7 -29 -44 0
7 -29 -52 0
7 -29 -60 0
7 -29 -68 0
7 -37 -36 0
7 -37 -52 0
7 -37 -60 0
7 -37 -68 0
7 -45 -36 0
7 -45 -44 0
7 -45 -60 0
7 -45 -68 0
7 -53 -36 0
7 -53 -44 0
7 -53 -52 0
7 -53 -68 0
7 -61 -36 0
7 -61 -44 0
7 -61 -52 0
7 -61 -60 0
8 -30 -39 0
8 -30 -47 0
8 -30 -55 0
8 -30 -63 0
8 -38 -31 0
8 -38 -47 0
8 -38 -55 0
8 -38 -63 0
8 -46 -31 0
8 -46 -39 0
8 -46 -55 0
8 -46 -63 0
8 -54 -31 0
8 -54 -39 0
8 -54 -47 0
8 -54 -63 0
8 -62 -31 0
8 -62 -39 0
8 -62 -47 0
8 -62 -55 0
9 -30 -40 0
9 -30 -48 0
9 -30 -56 0
9 -30 -64 0
9 -38 -32 0
9 -38 -48 0
9 -38 -56 0
9 -38 -64 0
9 -46 -32 0
9 -46 -40 0
9 -46 -56 0
9 -46 -64 0
9 -54 -32 0
9 -54 -40 0
9 -54 -48 0
9 -54 -64 0
9 -62 -32 0
9 -62 -40 0
9 -62 -48 0
9 -62 -56 0
10 -30 -41 0
10 -30 -49 0
10 -30 -57 0
10 -30 -65 0
10 -38 -33 0
10 -38 -49 0
10 -38 -57 0
10 -38 -65 0
10 -46 -33 0
10 -46 -41 0
10 -46 -57 0
10 -46 -65 0
10 -54 -33 0
10 -54 -41 0
10 -54 -49 0
10 -54 -65 0
10 -62 -33 0
10 -62 -41 0
10 -62 -49 0
10 -62 -57 0
11 -30 -42 0
11 -30 -50 0
11 -30 -58 0
11 -30 -66 0
11 -38 -34 0
11 -38 -50 0
11 -38 -58 0
11 -38 -66 0
11 -46 -34 0
11 -46 -42 0
11 -46 -58 0
11 -46 -66 0
11 -54 -34 0
11 -54 -42 0
11 -54 -50 0
11 -54 -66 0
11 -62 -34 0
11 -62 -42 0
11 -62 -50 0
11 -62 -58 0
12 -30 -43 0
12 -30 -51 0
12 -30 -59 0
12 -30 -67 0
12 -38 -35 0
12 -38 -51 0
12 -38 -59 0
12 -38 -67 0
12 -46 -35 0
12 -46 -43 0
12 -46 -59 0
12 -46 -67 0
12 -54 -35 0
12 -54 -43 0
12 -54 -51 0
12 -54 -67 0
12 -62 -35 0
12 -62 -43 0
12 -62 -51 0
12 -62 -59 0
13 -30 -44 0
13 -30 -52 0
13 -30 -60 0
13 -30 -68 0
13 -38 -36 0
13 -38 -52 0
13 -38 -60 0
13 -38 -68 0
13 -46 -36 0
13 -46 -44 0
13 -46 -60 0
13 -46 -68 0
13 -54 -36 0
13 -54 -44 0
13 -54 -52 0
13 -54 -68 0
13 -62 -36 0
13 -62 -44 0
13 -62 -52 0
13 -62 -60 0
14 -31 -40 0
14 -31 -48 0
14 -31 -56 0
14 -31 -64 0
14 -39 -32 0
14 -39 -48 0
14 -39 -56 0
14 -39 -64 0
14 -47 -32 0
14 -47 -40 0
14 -47 -56 0
14 -47 -64 0
14 -55 -32 0
14 -55 -40 0
14 -55 -48 0
14 -55 -64 0
14 -63 -32 0
14 -63 -40 0
14 -63 -48 0
14 -63 -56 0
15 -31 -41 0
15 -31 -49 0
15 -31 -57 0
15 -31 -65 0
15 -39 -33 0
15 -39 -49 0
15 -39 -57 0
15 -39 -65 0
15 -47 -33 0
15 -47 -41 0
15 -47 -57 0
15 -47 -65 0
15 -55 -33 0
15 -55 -41 0
15 -55 -49 0
15 -55 -65 0
15 -63 -33 0
15 -63 -41 0
15 -63 -49 0
15 -63 -57 0
16 -31 -42 0
16 -31 -50 0
16 -31 -58 0
16 -31 -66 0
16 -39 -34 0
16 -39 -50 0
16 -39 -58 0
16 -39 -66 0
16 -47 -34 0
16 -47 -42 0
16 -47 -58 0
16 -47 -66 0
16 -55 -34 0
16 -55 -42 0
16 -55 -50 0
16 -55 -66 0
16 -63 -34 0
16 -63 -42 0
16 -63 -50 0
16 -63 -58 0
17 -31 -43 0
17 -31 -51 0
17 -31 -59 0
17 -31 -67 0
17 -39 -35 0
17 -39 -51 0
17 -39 -59 0
17 -39 -67 0
17 -47 -35 0
17 -47 -43 0
17 -47 -59 0
17 -47 -67 0
17 -55 -35 0
17 -55 -43 0
17 -55 -51 0
17 -55 -67 0
17 -63 -35 0
17 -63 -43 0
17 -63 -51 0
17 -63 -59 0
18 -31 -44 0
18 -31 -52 0
18 -31 -60 0
18 -31 -68 0
18 -39 -36 0
18 -39 -52 0
18 -39 -60 0
18 -39 -68 0
18 -47 -36 0
18 -47 -44 0
18 -47 -60 0
18 -47 -68 0
18 -55 -36 0
18 -55 -44 0
18 -55 -52 0
18 -55 -68 0
18 -63 -36 0
18 -63 -44 0
18 -63 -52 0
18 -63 -60 0
19 -32 -41 0
19 -32 -49 0
19 -32 -57 0
19 -32 -65 0
19 -40 -33 0
19 -40 -49 0
19 -40 -57 0
19 -40 -65 0
19 -48 -33 0
19 -48 -41 0
19 -48 -57 0
19 -48 -65 0
19 -56 -33 0
19 -56 -41 0
19 -56 -49 0
19 -56 -65 0
19 -64 -33 0
19 -64 -41 0
19 -64 -49 0
19 -64 -57 0
20 -32 -42 0
20 -32 -50 0
20 -32 -58 0
20 -32 -66 0
20 -40 -34 0
20 -40 -50 0
20 -40 -58 0
20 -40 -66 0
20 -48 -34 0
20 -48 -42 0
20 -48 -58 0
20 -48 -66 0
20 -56 -34 0
20 -56 -42 0
20 -56 -50 0
20 -56 -66 0
20 -64 -34 0
20 -64 -42 0
20 -64 -50 0
20 -64 -58 0
21 -32 -43 0
21 -32 -51 0
21 -32 -59 0
21 -32 -67 0
21 -40 -35 0
21 -40 -51 0
21 -40 -59 0
21 -40 -67 0
21 -48 -35 0
21 -48 -43 0
21 -48 -59 0
21 -48 -67 0
21 -56 -35 0
21 -56 -43 0
21 -56 -51 0
21 -56 -67 0
21 -64 -35 0
21 -64 -43 0
21 -64 -51 0
21 -64 -59 0
22 -32 -44 0
22 -32 -52 0
22 -32 -60 0
22 -32 -68 0
22 -40 -36 0
22 -40 -52 0
22 -40 -60 0
22 -40 -68 0
22 -48 -36 0
22 -48 -44 0
22 -48 -60 0
22 -48 -68 0
22 -56 -36 0
22 -56 -44 0
22 -56 -52 0
22 -56 -68 0
22 -64 -36 0
22 -64 -44 0
22 -64 -52 0
22 -64 -60 0
23 -33 -42 0
23 -33 -50 0
23 -33 -58 0
23 -33 -66 0
23 -41 -34 0
23 -41 -50 0
23 -41 -58 0
23 -41 -66 0
23 -49 -34 0
23 -49 -42 0
23 -49 -58 0
23 -49 -66 0
23 -57 -34 0
23 -57 -42 0
23 -57 -50 0
23 -57 -66 0
23 -65 -34 0
23 -65 -42 0
23 -65 -50 0
23 -65 -58 0
24 -33 -43 0
24 -33 -51 0
24 -33 -59 0
24 -33 -67 0
24 -41 -35 0
24 -41 -51 0
24 -41 -59 0
24 -41 -67 0
24 -49 -35 0
24 -49 -43 0
24 -49 -59 0
24 -49 -67 0
24 -57 -35 0
24 -57 -43 0
24 -57 -51 0
24 -57 -67 0
24 -65 -35 0
24 -65 -43 0
24 -65 -51 0
24 -65 -59 0
25 -33 -44 0
25 -33 -52 0
25 -33 -60 0
25 -33 -68 0
25 -41 -36 0
25 -41 -52 0
25 -41 -60 0
25 -41 -68 0
25 -49 -36 0
25 -49 -44 0
25 -49 -60 0
25 -49 -68 0
25 -57 -36 0
25 -57 -44 0
25 -57 -52 0
25 -57 -68 0
25 -65 -36 0
25 -65 -44 0
25 -65 -52 0
25 -65 -60 0
26 -34 -43 0
26 -34 -51 0
26 -34 -59 0
26 -34 -67 0
26 -42 -35 0
26 -42 -51 0
26 -42 -59 0
26 -42 -67 0
26 -50 -35 0
26 -50 -43 0
26 -50 -59 0
26 -50 -67 0
26 -58 -35 0
26 -58 -43 0
26 -58 -51 0
26 -58 -67 0
26 -66 -35 0
26 -66 -43 0
26 -66 -51 0
26 -66 -59 0
27 -34 -44 0
27 -34 -52 0
27 -34 -60 0
27 -34 -68 0
27 -42 -36 0
27 -42 -52 0
27 -42 -60 0
27 -42 -68 0
27 -50 -36 0
27 -50 -44 0
27 -50 -60 0
27 -50 -68 0
27 -58 -36 0
27 -58 -44 0
27 -58 -52 0
27 -58 -68 0
27 -66 -36 0
27 -66 -44 0
27 -66 -52 0
27 -66 -60 0
28 -35 -44 0
28 -35 -52 0
28 -35 -60 0
28 -35 -68 0
28 -43 -36 0
28 -43 -52 0
28 -43 -60 0
28 -43 -68 0
28 -51 -36 0
28 -51 -44 0
28 -51 -60 0
28 -51 -68 0
28 -59 -36 0
28 -59 -44 0
28 -59 -52 0
28 -59 -68 0
28 -67 -36 0
28 -67 -44 0
28 -67 -52 0
28 -67 -60 0
-69 -70 0
-69 -71 0
-69 -72 0
-69 -73 0
-69 -74 0
-70 -71 0
-70 -72 0
-70 -73 0
-70 -74 0
-71 -72 0
-71 -73 0
-71 -74 0
-72 -73 0
-72 -74 0
-73 -74 0
69 70 71 72 73 74 0
-75 -76 0
-75 -77 0
-75 -78 0
-75 -79 0
-75 -80 0
-76 -77 0
-76 -78 0
-76 -79 0
-76 -80 0
-77 -78 0
-77 -79 0
-77 -80 0
-78 -79 0
-78 -80 0
-79 -80 0
75 76 77 78 79 80 0
-81 -82 0
-81 -83 0
-81 -84 0
-81 -85 0
-81 -86 0
-82 -83 0
-82 -84 0
-82 -85 0
-82 -86 0
-83 -84 0
-83 -85 0
-83 -86 0
-84 -85 0
-84 -86 0
-85 -86 0
81 82 83 84 85 86 0
-87 -88 0
-87 -89 0
-87 -90 0
-87 -91 0
-87 -92 0
-88 -89 0
-88 -90 0
-88 -91 0
-88 -92 0
-89 -90 0
-89 -91 0
-89 -92 0
-90 -91 0
-90 -92 0
-91 -92 0
87 88 89 90 91 92 0
-93 -94 0
-93 -95 0
-93 -96 0
-93 -97 0
-93 -98 0
-94 -95 0
-94 -96 0
-94 -97 0
-94 -98 0
-95 -96 0
-95 -97 0
-95 -98 0
-96 -97 0
-96 -98 0
-97 -98 0
93 94 95 96 97 98 0
-99 -100 0
-99 -101 0
-99 -102 0
-99 -103 0
-99 -104 0
-100 -101 0
-100 -102 0
-100 -103 0
-100 -104 0
-101 -102 0
-101 -103 0
-101 -104 0
-102 -103 0
-102 -104 0
-103 -104 0
99 100 101 102 103 104 0
-105 -106 0
-105 -107 0
-105 -108 0
-105 -109 0
-105 -110 0
-106 -107 0
-106 -108 0
-106 -109 0
-106 -110 0
-107 -108 0
-107 -109 0
-107 -110 0
-108 -109 0
-108 -110 0
-109 -110 0
105 106 107 108 109 110 0
-111 -112 0
-111 -113 0
-111 -114 0
-111 -115 0
-111 -116 0
-112 -113 0
-112 -114 0
-112 -115 0
-112 -116 0
-113 -114 0
-113 -115 0
-113 -116 0
-114 -115 0
-114 -116 0
-115 -116 0
111 112 113 114 115 116 0
-1 -69 -75 0
-1 -70 -76 0
-1 -71 -77 0
-1 -72 -78 0
-1 -73 -79 0
-1 -74 -80 0
-2 -69 -81 0
-2 -70 -82 0
-2 -71 -83 0
-2 -72 -84 0
-2 -73 -85 0
-2 -74 -86 0
-3 -69 -87 0
-3 -70 -88 0
-3 -71 -89 0
-3 -72 -90 0
-3 -73 -91 0
-3 -74 -92 0
-4 -69 -93 0
-4 -70 -94 0
-4 -71 -95 0
-4 -72 -96 0
-4 -73 -97 0
-4 -74 -98 0
-5 -69 -99 0
-5 -70 -100 0
-5 -71 -101 0
-5 -72 -102 0
-5 -73 -103 0
-5 -74 -104 0
-6 -69 -105 0
-6 -70 -106 0
-6 -71 -107 0
-6 -72 -108 0
-6 -73 -109 0
-6 -74 -110 0
-7 -69 -111 0
-7 -70 -112 0
-7 -71 -113 0
-7 -72 -114 0
-7 -73 -115 0
-7 -74 -116 0
-8 -75 -81 0
-8 -76 -82 0
-8 -77 -83 0
-8 -78 -84 0
-8 -79 -85 0
-8 -80 -86 0
-9 -75 -87 0
-9 -76 -88 0
-9 -77 -89 0
-9 -78 -90 0
-9 -79 -91 0
-9 -80 -92 0
-10 -75 -93 0
-10 -76 -94 0
-10 -77 -95 0
-10 -78 -96 0
-10 -79 -97 0
-10 -80 -98 0
-11 -75 -99 0
-11 -76 -100 0
-11 -77 -101 0
-11 -78 -102 0
-11 -79 -103 0
-11 -80 -104 0
-12 -75 -105 0
-12 -76 -106 0
-12 -77 -107 0
-12 -78 -108 0
-12 -79 -109 0
-12 -80 -110 0
-13 -75 -111 0
-13 -76 -112 0
-13 -77 -113 0
-13 -78 -114 0
-13 -79 -115 0
-13 -80 -116 0
-14 -81 -87 0
-14 -82 -88 0
-14 -83 -89 0
-14 -84 -90 0
-14 -85 -91 0
-14 -86 -92 0
-15 -81 -93 0
-15 -82 -94 0
-15 -83 -95 0
-15 -84 -96 0
-15 -85 -97 0
-15 -86 -98 0
-16 -81 -99 0
-16 -82 -100 0
-16 -83 -101 0
-16 -84 -102 0
-16 -85 -103 0
-16 -86 -104 0
-17 -81 -105 0
-17 -82 -106 0
-17 -83 -107 0
-17 -84 -108 0
-17 -85 -109 0
-17 -86 -110 0
-18 -81 -111 0
-18 -82 -112 0
-18 -83 -113 0
-18 -84 -114 0
-18 -85 -115 0
-18 -86 -116 0
-19 -87 -93 0
-19 -88 -94 0
-19 -89 -95 0
-19 -90 -96 0
-19 -91 -97 0
-19 -92 -98 0
-20 -87 -99 0
-20 -88 -100 0
-20 -89 -101 0
-20 -90 -102 0
-20 -91 -103 0
-20 -92 -104 0
-21 -87 -105 0
-21 -88 -106 0
-21 -89 -107 0
-21 -90 -108 0
-21 -91 -109 0
-21 -92 -110 0
-22 -87 -111 0
-22 -88 -112 0
-22 -89 -113 0
-22 -90 -114 0
-22 -91 -115 0
-22 -92 -116 0
-23 -93 -99 0
-23 -94 -100 0
-23 -95 -101 0
-23 -96 -102 0
-23 -97 -103 0
-23 -98 -104 0
-24 -93 -105 0
-24 -94 -106 0
-24 -95 -107 0
-24 -96 -108 0
-24 -97 -109 0
-24 -98 -110 0
-25 -93 -111 0
-25 -94 -112 0
-25 -95 -113 0
-25 -96 -114 0
-25 -97 -115 0
-25 -98 -116 0
-26 -99 -105 0
-26 -100 -106 0
-26 -101 -107 0
-26 -102 -108 0
-26 -103 -109 0
-26 -104 -110 0
-27 -99 -111 0
-27 -100 -112 0
-27 -101 -113 0
-27 -102 -114 0
-27 -103 -115 0
-27 -104 -116 0
-28 -105 -111 0
-28 -106 -112 0
-28 -107 -113 0
-28 -108 -114 0
-28 -109 -115 0
-28 -110 -116 0